<number of tasks>
45

<cycle time>
56

<task times>
1 9
2 9
3 10
4 10
5 17
6 17
7 13
8 13
9 20
10 20
11 10
12 11
13 6
14 22
15 11
16 19
17 12
18 3
19 7
20 4
21 55
22 14
23 27
24 29
25 26
26 6
27 5
28 24
29 4
30 5
31 7
32 4
33 15
34 3
35 7
36 9
37 4
38 7
39 5
40 4
41 21
42 12
43 6
44 5
45 5

<precedence relations>
1,3
1,7
2,4
2,8
3,5
4,6
5,9
6,10
7,9
7,14
8,10
8,14
9,41
10,41
11,13
12,13
12,37
13,14
13,15
14,17
14,25
14,29
14,30
14,31
14,32
15,16
15,18
15,23
15,24
16,19
17,26
17,27
18,19
19,20
19,33
20,21
21,22
22,28
23,33
24,33
25,26
26,38
27,28
27,33
28,38
29,41
30,41
31,41
32,41
33,34
33,35
33,36
34,38
35,40
36,38
37,43
38,40
39,41
40,41
41,42
42,44
42,45

<setup times forward>
1,3:1
1,4:1
1,7:2
1,8:2
1,10:2
1,16:2
1,18:2
1,19:2
1,20:1
1,21:1
1,22:1
1,23:1
1,24:1
1,39:2
1,43:1
2,3:1
2,4:1
2,5:1
2,7:2
2,8:2
2,9:1
2,16:2
2,18:2
2,19:2
2,20:1
2,21:1
2,22:1
2,23:1
2,24:1
2,39:2
2,43:1
3,2:1
3,6:1
3,7:3
3,8:3
3,10:1
3,11:1
3,12:1
3,13:1
3,15:1
3,16:3
3,18:3
3,19:3
3,21:2
3,23:2
3,24:2
3,25:1
3,26:2
3,28:1
3,29:2
3,30:2
3,31:2
3,32:2
3,34:2
3,35:1
3,36:1
3,37:1
3,39:1
3,43:2
4,1:1
4,6:1
4,7:3
4,8:3
4,9:2
4,11:1
4,12:1
4,13:1
4,15:1
4,16:3
4,18:3
4,19:3
4,21:2
4,23:2
4,24:2
4,25:1
4,26:2
4,28:1
4,29:2
4,30:2
4,31:2
4,32:2
4,34:2
4,35:1
4,36:1
4,37:1
4,39:1
4,43:2
5,2:1
5,6:1
5,7:3
5,8:3
5,9:2
5,10:1
5,11:1
5,12:1
5,13:1
5,15:1
5,16:3
5,18:3
5,19:3
5,21:2
5,23:2
5,24:2
5,25:1
5,26:2
5,28:1
5,29:2
5,30:2
5,31:2
5,32:2
5,34:2
5,35:1
5,36:1
5,37:1
5,39:1
5,43:2
6,3:1
6,5:1
6,7:2
6,8:2
6,9:1
6,10:2
6,14:1
6,16:2
6,17:1
6,18:2
6,19:2
6,20:1
6,21:1
6,22:1
6,23:1
6,24:1
6,26:1
6,27:1
6,28:2
6,29:1
6,30:1
6,31:1
6,32:1
6,33:1
6,34:1
6,35:2
6,38:1
6,39:2
6,40:1
6,43:1
7,2:2
7,3:3
7,4:3
7,5:3
7,6:2
7,9:1
7,10:4
7,11:2
7,12:2
7,13:2
7,14:3
7,15:2
7,20:3
7,21:1
7,22:3
7,23:1
7,24:1
7,37:2
7,39:4
7,43:1
8,1:2
8,3:3
8,4:3
8,5:3
8,6:2
8,9:1
8,10:4
8,11:2
8,12:2
8,13:2
8,14:3
8,15:2
8,20:3
8,21:1
8,22:3
8,23:1
8,24:1
8,37:2
8,39:4
8,43:1
9,2:1
9,4:2
9,6:1
9,8:1
9,10:3
9,11:1
9,12:1
9,13:1
9,14:2
9,15:1
9,16:1
9,17:2
9,18:1
9,19:1
9,20:2
9,22:2
9,25:1
9,27:2
9,28:3
9,33:2
9,35:3
9,36:1
9,37:1
9,38:2
9,39:3
9,40:2
9,41:2
10,1:2
10,3:1
10,5:1
10,7:4
10,9:3
10,11:2
10,12:2
10,13:2
10,14:1
10,15:2
10,16:4
10,17:1
10,18:4
10,19:4
10,20:1
10,21:3
10,22:1
10,23:3
10,24:3
10,25:2
10,26:3
10,27:1
10,29:3
10,30:3
10,31:3
10,32:3
10,33:1
10,34:3
10,36:2
10,37:2
10,38:1
10,40:1
10,41:1
10,43:3
11,3:1
11,4:1
11,5:1
11,7:2
11,8:2
11,9:1
11,10:2
11,39:2
11,43:1
12,3:1
12,4:1
12,5:1
12,7:2
12,8:2
12,9:1
12,10:2
12,39:2
13,3:1
13,4:1
13,5:1
13,7:2
13,8:2
13,9:1
13,10:2
13,14:1
13,39:2
13,43:1
14,6:1
14,9:2
14,10:1
14,15:1
14,16:3
14,18:3
14,19:3
14,21:2
14,23:2
14,24:2
14,25:1
14,29:2
14,30:2
14,31:2
14,32:2
14,37:1
14,39:1
14,43:2
15,3:1
15,4:1
15,5:1
15,7:2
15,8:2
15,9:1
15,10:2
15,14:1
15,16:2
15,17:1
15,18:2
15,23:1
15,24:1
15,26:1
15,27:1
15,29:1
15,30:1
15,31:1
15,32:1
15,39:2
15,43:1
16,1:2
16,2:2
16,3:3
16,4:3
16,5:3
16,6:2
16,9:1
16,10:4
16,14:3
16,17:3
16,23:1
16,24:1
16,25:2
16,26:1
16,27:3
16,29:1
16,30:1
16,31:1
16,32:1
16,37:2
16,39:4
16,43:1
17,6:1
17,9:2
17,10:1
17,15:1
17,16:3
17,18:3
17,19:3
17,21:2
17,23:2
17,24:2
17,25:1
17,26:2
17,29:2
17,30:2
17,31:2
17,32:2
17,37:1
17,39:1
17,43:2
18,1:2
18,2:2
18,3:3
18,4:3
18,5:3
18,6:2
18,9:1
18,10:4
18,14:3
18,17:3
18,23:1
18,24:1
18,25:2
18,26:1
18,27:3
18,29:1
18,30:1
18,31:1
18,32:1
18,37:2
18,39:4
18,43:1
19,1:2
19,2:2
19,3:3
19,4:3
19,5:3
19,6:2
19,9:1
19,10:4
19,14:3
19,17:3
19,20:3
19,23:1
19,24:1
19,25:2
19,26:1
19,27:3
19,29:1
19,30:1
19,31:1
19,32:1
19,33:3
19,37:2
19,39:4
19,43:1
20,1:1
20,2:1
20,6:1
20,7:3
20,8:3
20,9:2
20,10:1
20,21:2
20,23:2
20,24:2
20,25:1
20,26:2
20,29:2
20,30:2
20,31:2
20,32:2
20,34:2
20,35:1
20,36:1
20,37:1
20,39:1
20,43:2
21,1:1
21,2:1
21,3:2
21,4:2
21,5:2
21,6:1
21,7:1
21,8:1
21,10:3
21,14:2
21,17:2
21,22:2
21,25:1
21,27:2
21,33:2
21,35:3
21,36:1
21,37:1
21,39:3
22,1:1
22,2:1
22,6:1
22,7:3
22,8:3
22,9:2
22,10:1
22,23:2
22,24:2
22,25:1
22,26:2
22,28:1
22,29:2
22,30:2
22,31:2
22,32:2
22,34:2
22,35:1
22,36:1
22,37:1
22,39:1
22,43:2
23,1:1
23,2:1
23,3:2
23,4:2
23,5:2
23,6:1
23,7:1
23,8:1
23,10:3
23,14:2
23,16:1
23,17:2
23,18:1
23,19:1
23,20:2
23,22:2
23,25:1
23,27:2
23,28:3
23,33:2
23,37:1
23,39:3
24,1:1
24,2:1
24,3:2
24,4:2
24,5:2
24,6:1
24,7:1
24,8:1
24,10:3
24,14:2
24,16:1
24,17:2
24,18:1
24,19:1
24,20:2
24,22:2
24,25:1
24,27:2
24,28:3
24,33:2
24,37:1
24,39:3
25,3:1
25,4:1
25,5:1
25,9:1
25,10:2
25,16:2
25,17:1
25,18:2
25,19:2
25,20:1
25,21:1
25,22:1
25,23:1
25,24:1
25,26:1
25,27:1
25,28:2
25,29:1
25,30:1
25,31:1
25,32:1
25,33:1
25,34:1
25,35:2
25,39:2
25,43:1
26,3:2
26,4:2
26,5:2
26,6:1
26,10:3
26,15:1
26,16:1
26,18:1
26,19:1
26,20:2
26,22:2
26,27:2
26,28:3
26,33:2
26,35:3
26,36:1
26,37:1
26,38:2
26,39:3
27,6:1
27,9:2
27,10:1
27,15:1
27,16:3
27,18:3
27,19:3
27,21:2
27,23:2
27,24:2
27,25:1
27,26:2
27,28:1
27,29:2
27,30:2
27,31:2
27,32:2
27,37:1
27,39:1
27,43:2
28,3:1
28,4:1
28,5:1
28,6:2
28,9:3
28,23:3
28,24:3
28,25:2
28,26:3
28,29:3
28,30:3
28,31:3
28,32:3
28,33:1
28,34:3
28,36:2
28,37:2
28,38:1
28,43:3
29,3:2
29,4:2
29,5:2
29,6:1
29,10:3
29,15:1
29,16:1
29,17:2
29,18:1
29,19:1
29,20:2
29,22:2
29,25:1
29,27:2
29,28:3
29,33:2
29,35:3
29,36:1
29,37:1
29,38:2
29,39:3
29,40:2
29,41:2
30,3:2
30,4:2
30,5:2
30,6:1
30,10:3
30,15:1
30,16:1
30,17:2
30,18:1
30,19:1
30,20:2
30,22:2
30,25:1
30,27:2
30,28:3
30,33:2
30,35:3
30,36:1
30,37:1
30,38:2
30,39:3
30,40:2
30,41:2
31,3:2
31,4:2
31,5:2
31,6:1
31,10:3
31,15:1
31,16:1
31,17:2
31,18:1
31,19:1
31,20:2
31,22:2
31,25:1
31,27:2
31,28:3
31,33:2
31,35:3
31,36:1
31,37:1
31,38:2
31,39:3
31,40:2
31,41:2
32,3:2
32,4:2
32,5:2
32,6:1
32,10:3
32,15:1
32,16:1
32,17:2
32,18:1
32,19:1
32,20:2
32,22:2
32,25:1
32,27:2
32,28:3
32,33:2
32,35:3
32,36:1
32,37:1
32,38:2
32,39:3
32,40:2
32,41:2
33,6:1
33,9:2
33,10:1
33,21:2
33,25:1
33,26:2
33,28:1
33,29:2
33,30:2
33,31:2
33,32:2
33,34:2
33,35:1
33,36:1
33,37:1
33,39:1
33,43:2
34,3:2
34,4:2
34,5:2
34,6:1
34,10:3
34,20:2
34,22:2
34,25:1
34,28:3
34,35:3
34,36:1
34,37:1
34,38:2
34,39:3
35,3:1
35,4:1
35,5:1
35,6:2
35,9:3
35,20:1
35,21:3
35,22:1
35,25:2
35,26:3
35,29:3
35,30:3
35,31:3
35,32:3
35,34:3
35,36:2
35,37:2
35,38:1
35,40:1
35,43:3
36,3:1
36,4:1
36,5:1
36,9:1
36,10:2
36,20:1
36,21:1
36,22:1
36,26:1
36,28:2
36,29:1
36,30:1
36,31:1
36,32:1
36,34:1
36,35:2
36,38:1
36,39:2
36,43:1
37,3:1
37,4:1
37,5:1
37,7:2
37,8:2
37,9:1
37,10:2
37,14:1
37,16:2
37,17:1
37,18:2
37,19:2
37,20:1
37,21:1
37,22:1
37,23:1
37,24:1
37,26:1
37,27:1
37,28:2
37,29:1
37,30:1
37,31:1
37,32:1
37,33:1
37,34:1
37,35:2
37,38:1
37,39:2
37,40:1
37,41:1
37,42:1
37,43:1
37,44:1
37,45:1
38,6:1
38,9:2
38,10:1
38,29:2
38,30:2
38,31:2
38,32:2
38,35:1
38,37:1
38,39:1
38,43:2
39,1:2
39,2:2
39,3:1
39,4:1
39,5:1
39,6:2
39,7:4
39,8:4
39,9:3
39,11:2
39,12:2
39,13:2
39,14:1
39,15:2
39,16:4
39,17:1
39,18:4
39,19:4
39,20:1
39,21:3
39,22:1
39,23:3
39,24:3
39,25:2
39,26:3
39,27:1
39,29:3
39,30:3
39,31:3
39,32:3
39,33:1
39,34:3
39,36:2
39,37:2
39,38:1
39,40:1
39,41:1
39,43:3
40,6:1
40,9:2
40,10:1
40,29:2
40,30:2
40,31:2
40,32:2
40,37:1
40,39:1
40,43:2
41,37:1
41,43:2
42,37:1
42,43:2
43,1:1
43,2:1
43,3:2
43,4:2
43,5:2
43,6:1
43,7:1
43,8:1
43,10:3
43,11:1
43,13:1
43,14:2
43,15:1
43,16:1
43,17:2
43,18:1
43,19:1
43,20:2
43,22:2
43,25:1
43,27:2
43,28:3
43,33:2
43,35:3
43,36:1
43,38:2
43,39:3
43,40:2
43,41:2
43,42:2
43,44:2
43,45:2
44,37:1
44,43:2
45,37:1
45,43:2

<setup times backward>
1,4:1
1,10:2
1,20:1
1,22:1
1,39:2
2,3:1
2,5:1
2,20:1
2,22:1
2,39:2
3,10:1
3,28:1
3,35:1
3,39:1
4,28:1
4,35:1
4,39:1
5,10:1
5,28:1
5,35:1
5,39:1
6,3:1
6,4:1
6,5:1
6,14:1
6,17:1
6,20:1
6,22:1
6,27:1
6,28:2
6,33:1
6,35:2
6,38:1
6,39:2
6,40:1
7,1:2
7,2:2
7,3:3
7,4:3
7,5:3
7,6:2
7,10:4
7,11:2
7,12:2
7,13:2
7,15:2
7,20:3
7,21:1
7,22:3
7,23:1
7,24:1
7,37:2
7,39:4
7,43:1
8,1:2
8,2:2
8,3:3
8,4:3
8,5:3
8,6:2
8,9:1
8,11:2
8,12:2
8,13:2
8,15:2
8,20:3
8,21:1
8,22:3
8,23:1
8,24:1
8,37:2
8,39:4
8,43:1
9,1:1
9,2:1
9,3:2
9,4:2
9,5:2
9,6:1
9,10:3
9,11:1
9,12:1
9,13:1
9,14:2
9,15:1
9,17:2
9,20:2
9,22:2
9,25:1
9,27:2
9,28:3
9,33:2
9,35:3
9,36:1
9,37:1
9,38:2
9,39:3
9,40:2
11,3:1
11,4:1
11,5:1
11,10:2
11,39:2
12,3:1
12,4:1
12,5:1
12,10:2
12,39:2
13,3:1
13,4:1
13,5:1
13,10:2
13,39:2
14,10:1
14,39:1
15,3:1
15,4:1
15,5:1
15,10:2
15,14:1
15,17:1
15,27:1
15,39:2
16,1:2
16,2:2
16,3:3
16,4:3
16,5:3
16,6:2
16,9:1
16,10:4
16,11:2
16,12:2
16,13:2
16,14:3
16,15:2
16,17:3
16,23:1
16,24:1
16,25:2
16,26:1
16,27:3
16,29:1
16,30:1
16,31:1
16,32:1
16,37:2
16,39:4
16,43:1
17,10:1
17,39:1
18,1:2
18,2:2
18,3:3
18,4:3
18,5:3
18,6:2
18,9:1
18,10:4
18,11:2
18,12:2
18,13:2
18,14:3
18,15:2
18,17:3
18,23:1
18,24:1
18,25:2
18,26:1
18,27:3
18,29:1
18,30:1
18,31:1
18,32:1
18,37:2
18,39:4
18,43:1
19,1:2
19,2:2
19,3:3
19,4:3
19,5:3
19,6:2
19,9:1
19,10:4
19,11:2
19,12:2
19,13:2
19,14:3
19,15:2
19,17:3
19,23:1
19,24:1
19,25:2
19,26:1
19,27:3
19,29:1
19,30:1
19,31:1
19,32:1
19,37:2
19,39:4
19,43:1
20,10:1
20,35:1
20,39:1
21,1:1
21,2:1
21,3:2
21,4:2
21,5:2
21,6:1
21,10:3
21,11:1
21,12:1
21,13:1
21,14:2
21,15:1
21,17:2
21,20:2
21,25:1
21,27:2
21,33:2
21,35:3
21,36:1
21,37:1
21,39:3
22,10:1
22,35:1
22,39:1
23,1:1
23,2:1
23,3:2
23,4:2
23,5:2
23,6:1
23,10:3
23,11:1
23,12:1
23,13:1
23,14:2
23,15:1
23,17:2
23,20:2
23,22:2
23,25:1
23,27:2
23,28:3
23,37:1
23,39:3
24,1:1
24,2:1
24,3:2
24,4:2
24,5:2
24,6:1
24,10:3
24,11:1
24,12:1
24,13:1
24,14:2
24,15:1
24,17:2
24,20:2
24,22:2
24,25:1
24,27:2
24,28:3
24,37:1
24,39:3
25,3:1
25,4:1
25,5:1
25,10:2
25,14:1
25,17:1
25,20:1
25,22:1
25,27:1
25,28:2
25,33:1
25,35:2
25,39:2
26,1:1
26,2:1
26,3:2
26,4:2
26,5:2
26,6:1
26,10:3
26,11:1
26,12:1
26,13:1
26,14:2
26,15:1
26,17:2
26,20:2
26,22:2
26,25:1
26,27:2
26,28:3
26,33:2
26,35:3
26,36:1
26,37:1
26,39:3
27,10:1
27,39:1
29,1:1
29,2:1
29,3:2
29,4:2
29,5:2
29,6:1
29,10:3
29,11:1
29,12:1
29,13:1
29,14:2
29,15:1
29,17:2
29,20:2
29,22:2
29,25:1
29,27:2
29,28:3
29,33:2
29,35:3
29,36:1
29,37:1
29,38:2
29,39:3
29,40:2
30,1:1
30,2:1
30,3:2
30,4:2
30,5:2
30,6:1
30,10:3
30,11:1
30,12:1
30,13:1
30,14:2
30,15:1
30,17:2
30,20:2
30,22:2
30,25:1
30,27:2
30,28:3
30,33:2
30,35:3
30,36:1
30,37:1
30,38:2
30,39:3
30,40:2
31,1:1
31,2:1
31,3:2
31,4:2
31,5:2
31,6:1
31,10:3
31,11:1
31,12:1
31,13:1
31,14:2
31,15:1
31,17:2
31,20:2
31,22:2
31,25:1
31,27:2
31,28:3
31,33:2
31,35:3
31,36:1
31,37:1
31,38:2
31,39:3
31,40:2
32,1:1
32,2:1
32,3:2
32,4:2
32,5:2
32,6:1
32,10:3
32,11:1
32,12:1
32,13:1
32,14:2
32,15:1
32,17:2
32,20:2
32,22:2
32,25:1
32,27:2
32,28:3
32,33:2
32,35:3
32,36:1
32,37:1
32,38:2
32,39:3
32,40:2
33,10:1
33,28:1
33,39:1
34,1:1
34,2:1
34,3:2
34,4:2
34,5:2
34,6:1
34,10:3
34,11:1
34,12:1
34,13:1
34,14:2
34,15:1
34,17:2
34,20:2
34,22:2
34,25:1
34,27:2
34,28:3
34,33:2
34,35:3
34,36:1
34,37:1
34,39:3
36,3:1
36,4:1
36,5:1
36,10:2
36,14:1
36,17:1
36,20:1
36,22:1
36,27:1
36,28:2
36,33:1
36,35:2
36,39:2
37,3:1
37,4:1
37,5:1
37,10:2
37,14:1
37,17:1
37,20:1
37,22:1
37,27:1
37,28:2
37,33:1
37,35:2
37,38:1
37,39:2
37,40:1
37,41:1
37,42:1
37,44:1
37,45:1
38,10:1
38,28:1
38,35:1
38,39:1
40,10:1
40,28:1
40,35:1
40,39:1
41,10:1
41,28:1
41,35:1
41,39:1
42,10:1
42,28:1
42,35:1
42,39:1
43,1:1
43,2:1
43,3:2
43,4:2
43,5:2
43,6:1
43,10:3
43,11:1
43,12:1
43,13:1
43,14:2
43,15:1
43,17:2
43,20:2
43,22:2
43,25:1
43,27:2
43,28:3
43,33:2
43,35:3
43,36:1
43,37:1
43,38:2
43,39:3
43,40:2
43,41:2
43,42:2
43,44:2
43,45:2
44,10:1
44,28:1
44,35:1
44,39:1
45,10:1
45,28:1
45,35:1
45,39:1

<end>

<optimal SALBP-1 value>
10


<rand seed>
467321153

